NAME: ch150
COMMENT: Gabriela, Higor, Vitor - Twice-Around-the-Tree com 2-Opt
TYPE: TOUR
DIMENSION: 150
TOTAL WEIGHT: 7175
TOUR_SECTION
1
87
76
73
48
63
34
30
84
7
8
89
96
52
33
92
54
90
46
138
134
105
111
16
59
79
121
88
94
10
113
3
62
149
22
125
21
64
44
115
150
104
4
45
71
128
68
119
91
106
13
74
123
136
112
145
31
27
129
144
147
49
72
14
80
78
15
133
122
77
131
32
23
38
67
43
12
116
101
41
57
117
140
60
66
17
130
148
11
61
36
69
127
39
118
24
53
40
139
120
42
37
9
28
6
99
114
102
19
2
47
109
51
20
25
110
81
29
86
108
70
135
58
55
50
137
132
85
142
18
65
141
83
75
26
146
56
126
93
35
124
97
143
100
5
107
95
82
103
98
EOF
